1107905
72,44,91,85,89,8,53,55,49,10,56,6,75,41,69,18,77,96,32,33,57,47,9,20,21,30,62,31,60,93,63,13,70,74,1,48,37,68,80,99,38,83,61,82,58,11,23,28,46,34,71,54,98,65,52,92,84,39,14,15,16,67,27,2,64,5,3,42,97,35,50,76,86,81,73,22,43,24,90,59,19,17,12,26,40,51,79,94,25,29,78,95,66,7,4,45,87,88,36